p tdp 16 56
1 4
1 5
1 6
1 8
1 11
1 14
2 5
2 6
2 7
2 8
2 9
2 15
2 16
3 7
3 8
3 11
3 14
3 15
4 5
4 6
4 9
4 10
4 11
4 12
4 13
4 14
4 15
5 6
5 8
5 10
5 12
5 15
5 16
6 7
6 11
6 12
6 13
6 14
6 16
7 8
7 9
7 10
8 12
8 16
9 10
9 12
9 14
9 15
10 11
10 12
10 14
11 12
11 14
11 16
12 13
12 16
